nNurses = 198;
nHours = 37;
minHours = 3;
maxHours = 8;
maxConsec = 7;
maxPresence = 32;
demand = [14, 11, 12, 12, 9, 7, 6, 9, 7, 10, 10, 8, 6, 9, 12, 7, 9, 9, 6, 9, 12, 12, 16, 11, 11, 12, 17, 15, 16, 17, 21, 22, 17, 13, 10, 9, 10];
